c This is an instance of the exact track of PACE 2020 Challenge, see https://pacechallenge.org/2020/ 
c TYPE: infrastracture 
c ORIGIN: Open street maps 
c DESCRIPTION: Hornówek (Poland): a road network downloaded from open street maps using osmnx Python package 
p tdp 99 119
1 82
1 74
1 2
1 81
2 92
2 3
3 54
3 92
4 20
5 89
5 18
5 63
6 16
6 48
6 64
7 42
7 80
7 43
8 10
8 98
8 90
8 40
9 11
9 53
9 10
10 19
10 40
12 90
12 19
13 16
14 20
14 15
14 89
15 46
15 80
16 45
16 43
17 48
17 21
17 97
17 47
18 63
20 59
21 58
21 55
22 88
22 97
22 59
23 95
23 65
23 86
24 94
24 25
24 85
25 26
25 29
25 93
27 28
27 34
27 32
28 57
29 34
29 30
30 62
30 31
31 32
31 34
32 33
33 35
36 37
36 83
36 38
38 39
38 53
40 56
41 98
41 46
41 56
42 51
42 45
43 44
45 50
46 87
47 52
47 66
48 49
50 52
51 87
52 67
55 88
55 73
56 87
57 60
57 85
58 82
58 61
59 89
63 99
66 68
68 69
68 70
70 71
70 81
72 73
73 74
74 76
75 76
76 78
77 78
79 80
81 82
83 84
83 85
90 99
91 92
93 94
94 95
96 97
98 99
